50
1000
396
394
391
390
390
389
386
382
380
379
378
377
377
369
368
361
359
358
357
356
353
350
348
345
341
340
333
332
328
327
322
319
315
306
305
305
304
304
300
300
294
293
291
285
280
279
274
271
269
266
